c File: flat50_3_0.col
c
c SOURCE: Joseph Culberson (joe@cs.ualberta.ca)
c DESCRIPTION: Quasi-random coloring problem
c              generated with flatness = 0
c                             probability = 0.139
c                             known coloring = 3
c                             random seed = 1034
c              Creation Date:  Tue Jun  9 11:59:35 1998
c Maximum degree = 8 Minimum degree = 1
c p edge 50 115
c cnf created by edge2cnf
p cnf 150 545
-1 -2 0
-1 -3 0
-2 -3 0
1 2 3 0
-4 -5 0
-4 -6 0
-5 -6 0
4 5 6 0
-7 -8 0
-7 -9 0
-8 -9 0
7 8 9 0
-10 -11 0
-10 -12 0
-11 -12 0
10 11 12 0
-13 -14 0
-13 -15 0
-14 -15 0
13 14 15 0
-16 -17 0
-16 -18 0
-17 -18 0
16 17 18 0
-19 -20 0
-19 -21 0
-20 -21 0
19 20 21 0
-22 -23 0
-22 -24 0
-23 -24 0
22 23 24 0
-25 -26 0
-25 -27 0
-26 -27 0
25 26 27 0
-28 -29 0
-28 -30 0
-29 -30 0
28 29 30 0
-31 -32 0
-31 -33 0
-32 -33 0
31 32 33 0
-34 -35 0
-34 -36 0
-35 -36 0
34 35 36 0
-37 -38 0
-37 -39 0
-38 -39 0
37 38 39 0
-40 -41 0
-40 -42 0
-41 -42 0
40 41 42 0
-43 -44 0
-43 -45 0
-44 -45 0
43 44 45 0
-46 -47 0
-46 -48 0
-47 -48 0
46 47 48 0
-49 -50 0
-49 -51 0
-50 -51 0
49 50 51 0
-52 -53 0
-52 -54 0
-53 -54 0
52 53 54 0
-55 -56 0
-55 -57 0
-56 -57 0
55 56 57 0
-58 -59 0
-58 -60 0
-59 -60 0
58 59 60 0
-61 -62 0
-61 -63 0
-62 -63 0
61 62 63 0
-64 -65 0
-64 -66 0
-65 -66 0
64 65 66 0
-67 -68 0
-67 -69 0
-68 -69 0
67 68 69 0
-70 -71 0
-70 -72 0
-71 -72 0
70 71 72 0
-73 -74 0
-73 -75 0
-74 -75 0
73 74 75 0
-76 -77 0
-76 -78 0
-77 -78 0
76 77 78 0
-79 -80 0
-79 -81 0
-80 -81 0
79 80 81 0
-82 -83 0
-82 -84 0
-83 -84 0
82 83 84 0
-85 -86 0
-85 -87 0
-86 -87 0
85 86 87 0
-88 -89 0
-88 -90 0
-89 -90 0
88 89 90 0
-91 -92 0
-91 -93 0
-92 -93 0
91 92 93 0
-94 -95 0
-94 -96 0
-95 -96 0
94 95 96 0
-97 -98 0
-97 -99 0
-98 -99 0
97 98 99 0
-100 -101 0
-100 -102 0
-101 -102 0
100 101 102 0
-103 -104 0
-103 -105 0
-104 -105 0
103 104 105 0
-106 -107 0
-106 -108 0
-107 -108 0
106 107 108 0
-109 -110 0
-109 -111 0
-110 -111 0
109 110 111 0
-112 -113 0
-112 -114 0
-113 -114 0
112 113 114 0
-115 -116 0
-115 -117 0
-116 -117 0
115 116 117 0
-118 -119 0
-118 -120 0
-119 -120 0
118 119 120 0
-121 -122 0
-121 -123 0
-122 -123 0
121 122 123 0
-124 -125 0
-124 -126 0
-125 -126 0
124 125 126 0
-127 -128 0
-127 -129 0
-128 -129 0
127 128 129 0
-130 -131 0
-130 -132 0
-131 -132 0
130 131 132 0
-133 -134 0
-133 -135 0
-134 -135 0
133 134 135 0
-136 -137 0
-136 -138 0
-137 -138 0
136 137 138 0
-139 -140 0
-139 -141 0
-140 -141 0
139 140 141 0
-142 -143 0
-142 -144 0
-143 -144 0
142 143 144 0
-145 -146 0
-145 -147 0
-146 -147 0
145 146 147 0
-148 -149 0
-148 -150 0
-149 -150 0
148 149 150 0
-88 -1 0
-89 -2 0
-90 -3 0
-121 -1 0
-122 -2 0
-123 -3 0
-127 -1 0
-128 -2 0
-129 -3 0
-130 -1 0
-131 -2 0
-132 -3 0
-139 -1 0
-140 -2 0
-141 -3 0
-67 -4 0
-68 -5 0
-69 -6 0
-76 -4 0
-77 -5 0
-78 -6 0
-112 -4 0
-113 -5 0
-114 -6 0
-115 -4 0
-116 -5 0
-117 -6 0
-55 -7 0
-56 -8 0
-57 -9 0
-88 -7 0
-89 -8 0
-90 -9 0
-91 -7 0
-92 -8 0
-93 -9 0
-94 -7 0
-95 -8 0
-96 -9 0
-106 -7 0
-107 -8 0
-108 -9 0
-124 -7 0
-125 -8 0
-126 -9 0
-133 -7 0
-134 -8 0
-135 -9 0
-148 -7 0
-149 -8 0
-150 -9 0
-61 -10 0
-62 -11 0
-63 -12 0
-76 -10 0
-77 -11 0
-78 -12 0
-82 -10 0
-83 -11 0
-84 -12 0
-91 -10 0
-92 -11 0
-93 -12 0
-145 -10 0
-146 -11 0
-147 -12 0
-112 -13 0
-113 -14 0
-114 -15 0
-118 -13 0
-119 -14 0
-120 -15 0
-142 -13 0
-143 -14 0
-144 -15 0
-64 -16 0
-65 -17 0
-66 -18 0
-139 -16 0
-140 -17 0
-141 -18 0
-142 -16 0
-143 -17 0
-144 -18 0
-64 -19 0
-65 -20 0
-66 -21 0
-67 -19 0
-68 -20 0
-69 -21 0
-82 -19 0
-83 -20 0
-84 -21 0
-118 -19 0
-119 -20 0
-120 -21 0
-121 -19 0
-122 -20 0
-123 -21 0
-58 -22 0
-59 -23 0
-60 -24 0
-88 -22 0
-89 -23 0
-90 -24 0
-91 -22 0
-92 -23 0
-93 -24 0
-145 -22 0
-146 -23 0
-147 -24 0
-55 -25 0
-56 -26 0
-57 -27 0
-127 -25 0
-128 -26 0
-129 -27 0
-139 -25 0
-140 -26 0
-141 -27 0
-148 -25 0
-149 -26 0
-150 -27 0
-64 -28 0
-65 -29 0
-66 -30 0
-85 -28 0
-86 -29 0
-87 -30 0
-100 -28 0
-101 -29 0
-102 -30 0
-103 -28 0
-104 -29 0
-105 -30 0
-106 -28 0
-107 -29 0
-108 -30 0
-109 -28 0
-110 -29 0
-111 -30 0
-112 -28 0
-113 -29 0
-114 -30 0
-52 -31 0
-53 -32 0
-54 -33 0
-73 -31 0
-74 -32 0
-75 -33 0
-76 -31 0
-77 -32 0
-78 -33 0
-82 -31 0
-83 -32 0
-84 -33 0
-103 -31 0
-104 -32 0
-105 -33 0
-118 -31 0
-119 -32 0
-120 -33 0
-133 -31 0
-134 -32 0
-135 -33 0
-61 -34 0
-62 -35 0
-63 -36 0
-79 -34 0
-80 -35 0
-81 -36 0
-61 -37 0
-62 -38 0
-63 -39 0
-64 -37 0
-65 -38 0
-66 -39 0
-70 -40 0
-71 -41 0
-72 -42 0
-76 -40 0
-77 -41 0
-78 -42 0
-124 -40 0
-125 -41 0
-126 -42 0
-136 -40 0
-137 -41 0
-138 -42 0
-52 -43 0
-53 -44 0
-54 -45 0
-58 -43 0
-59 -44 0
-60 -45 0
-82 -43 0
-83 -44 0
-84 -45 0
-106 -43 0
-107 -44 0
-108 -45 0
-61 -46 0
-62 -47 0
-63 -48 0
-70 -46 0
-71 -47 0
-72 -48 0
-97 -46 0
-98 -47 0
-99 -48 0
-103 -46 0
-104 -47 0
-105 -48 0
-106 -46 0
-107 -47 0
-108 -48 0
-115 -46 0
-116 -47 0
-117 -48 0
-148 -46 0
-149 -47 0
-150 -48 0
-52 -49 0
-53 -50 0
-54 -51 0
-88 -49 0
-89 -50 0
-90 -51 0
-121 -49 0
-122 -50 0
-123 -51 0
-115 -52 0
-116 -53 0
-117 -54 0
-118 -52 0
-119 -53 0
-120 -54 0
-130 -52 0
-131 -53 0
-132 -54 0
-112 -55 0
-113 -56 0
-114 -57 0
-136 -55 0
-137 -56 0
-138 -57 0
-106 -58 0
-107 -59 0
-108 -60 0
-109 -61 0
-110 -62 0
-111 -63 0
-118 -61 0
-119 -62 0
-120 -63 0
-136 -61 0
-137 -62 0
-138 -63 0
-112 -64 0
-113 -65 0
-114 -66 0
-148 -64 0
-149 -65 0
-150 -66 0
-115 -67 0
-116 -68 0
-117 -69 0
-121 -67 0
-122 -68 0
-123 -69 0
-136 -67 0
-137 -68 0
-138 -69 0
-118 -70 0
-119 -71 0
-120 -72 0
-124 -70 0
-125 -71 0
-126 -72 0
-133 -70 0
-134 -71 0
-135 -72 0
-139 -70 0
-140 -71 0
-141 -72 0
-133 -76 0
-134 -77 0
-135 -78 0
-136 -76 0
-137 -77 0
-138 -78 0
-106 -79 0
-107 -80 0
-108 -81 0
-130 -82 0
-131 -83 0
-132 -84 0
-145 -82 0
-146 -83 0
-147 -84 0
-106 -85 0
-107 -86 0
-108 -87 0
-112 -85 0
-113 -86 0
-114 -87 0
-139 -85 0
-140 -86 0
-141 -87 0
-103 -88 0
-104 -89 0
-105 -90 0
-118 -88 0
-119 -89 0
-120 -90 0
-139 -88 0
-140 -89 0
-141 -90 0
-130 -91 0
-131 -92 0
-132 -93 0
-133 -94 0
-134 -95 0
-135 -96 0
-121 -97 0
-122 -98 0
-123 -99 0
-124 -97 0
-125 -98 0
-126 -99 0
-133 -97 0
-134 -98 0
-135 -99 0
-103 -100 0
-104 -101 0
-105 -102 0
-112 -100 0
-113 -101 0
-114 -102 0
-121 -100 0
-122 -101 0
-123 -102 0
-148 -100 0
-149 -101 0
-150 -102 0
